predicate fzn_blackbox(array [int] of var int: int_input,array [int] of var float: float_input,array [int] of var int: int_output,array [int] of var float: float_output);
var -400..400: X:: output_var;
var -400..400: Y:: output_var;
var -3..68: obj:: output_var;
array [1..1] of var int: X_INTRODUCED_1_ ::var_is_introduced  = [obj];
array [1..2] of var int: X_INTRODUCED_2_ ::var_is_introduced  = [X,Y];
constraint fzn_blackbox(X_INTRODUCED_2_,[],X_INTRODUCED_1_,[]):: blackbox_dll("./libbb_pricess.so");
solve  minimize obj;
